
data_bf17

_audit_creation_method            SHELXL-97
_chemical_name_systematic
;
  ?
;
_chemical_name_common             ?
_chemical_melting_point           ?
_chemical_formula_moiety
  'C24 H20 Co N6'
_chemical_formula_sum
  'C24 H20 Co N6'
_chemical_formula_weight          451.39

loop_
  _atom_type_symbol
  _atom_type_description
  _atom_type_scat_dispersion_real
  _atom_type_scat_dispersion_imag
  _atom_type_scat_source
  'C'  'C'   0.0033   0.0016
  'International Tables Vol C Tables 4.2.6.8 and 6.1.1.4'
  'H'  'H'   0.0000   0.0000
  'International Tables Vol C Tables 4.2.6.8 and 6.1.1.4'
  'Co'  'Co'   0.3494   0.9721
  'International Tables Vol C Tables 4.2.6.8 and 6.1.1.4'
  'N'  'N'   0.0061   0.0033
  'International Tables Vol C Tables 4.2.6.8 and 6.1.1.4'

_symmetry_cell_setting            Triclinic
_symmetry_space_group_name_H-M    P-1

loop_
  _symmetry_equiv_pos_as_xyz
  'x, y, z'
  '-x, -y, -z'

_cell_length_a                    9.0039(19)
_cell_length_b                    14.354(3)
_cell_length_c                    17.053(3)
_cell_angle_alpha                 94.365(10)
_cell_angle_beta                  98.260(10)
_cell_angle_gamma                 97.081(9)
_cell_volume                      2154.6(7)
_cell_formula_units_Z             4
_cell_measurement_temperature     173(2)
_cell_measurement_reflns_used     524
_cell_measurement_theta_min       2.70
_cell_measurement_theta_max       18.52

_exptl_crystal_description        'thin plate'
_exptl_crystal_colour             red
_exptl_crystal_size_max           0.20
_exptl_crystal_size_mid           0.07
_exptl_crystal_size_min           0.01
_exptl_crystal_density_meas       0
_exptl_crystal_density_diffrn     1.392
_exptl_crystal_density_method     'not measured'
_exptl_crystal_F_000              932
_exptl_absorpt_coefficient_mu     0.820
_exptl_absorpt_correction_type    multi-scan
_exptl_absorpt_correction_T_min   0.8532
_exptl_absorpt_correction_T_max   0.9918
_exptl_absorpt_process_details    SADABS

_exptl_special_details
;
  ?
;

_diffrn_ambient_temperature       173(2)
_diffrn_radiation_wavelength      0.71073
_diffrn_radiation_type            MoK\a
_diffrn_radiation_source          'fine-focus sealed tube'
_diffrn_radiation_monochromator   graphite
_diffrn_measurement_device_type   'Bruker X8 APEX II diffractometer'
_diffrn_measurement_method        'phi and omega scans'
_diffrn_detector_area_resol_mean  ?
_diffrn_standards_number          ?
_diffrn_standards_interval_count  ?
_diffrn_standards_interval_time   ?
_diffrn_standards_decay_%         ?
_diffrn_reflns_number             8286
_diffrn_reflns_av_R_equivalents   0.0833
_diffrn_reflns_av_sigmaI/netI     0.1580
_diffrn_reflns_limit_h_min        -9
_diffrn_reflns_limit_h_max        8
_diffrn_reflns_limit_k_min        -14
_diffrn_reflns_limit_k_max        14
_diffrn_reflns_limit_l_min        -16
_diffrn_reflns_limit_l_max        16
_diffrn_reflns_theta_min          1.79
_diffrn_reflns_theta_max          20.89
_reflns_number_total              4021
_reflns_number_gt                 2205
_reflns_threshold_expression      >2sigma(I)

_computing_data_collection        'Bruker APEX2'
_computing_cell_refinement        'Bruker SAINT+'
_computing_data_reduction         'Bruker SAINT+'
_computing_structure_solution     'SHELXS-97 (Sheldrick, 1990)'
_computing_structure_refinement   'SHELXL-97 (Sheldrick, 1997)'
_computing_molecular_graphics     'Bruker SHELXTL'
_computing_publication_material   'Bruker SHELXTL'

_refine_special_details
;
  Refinement of F^2^ against ALL reflections.  The weighted R-factor wR and
  goodness of fit S are based on F^2^, conventional R-factors R are based
  on F, with F set to zero for negative F^2^. The threshold expression of
  F^2^ > 2sigma(F^2^) is used only for calculating R-factors(gt) etc. and is
  not relevant to the choice of reflections for refinement.  R-factors based
  on F^2^ are statistically about twice as large as those based on F, and R-
  factors based on ALL data will be even larger.
;

_refine_ls_structure_factor_coef  Fsqd
_refine_ls_matrix_type            full
_refine_ls_weighting_scheme       calc
_refine_ls_weighting_details
  'calc w=1/[\s^2^(Fo^2^)+(0.0454P)^2^+0.0000P] where P=(Fo^2^+2Fc^2^)/3'
_atom_sites_solution_primary      direct
_atom_sites_solution_secondary    difmap
_atom_sites_solution_hydrogens    geom
_refine_ls_hydrogen_treatment     riding
_refine_ls_extinction_method      none
_refine_ls_extinction_coef        ?
_refine_ls_number_reflns          4021
_refine_ls_number_parameters      559
_refine_ls_number_restraints      126
_refine_ls_R_factor_all           0.1230
_refine_ls_R_factor_gt            0.0596
_refine_ls_wR_factor_ref          0.1290
_refine_ls_wR_factor_gt           0.1102
_refine_ls_goodness_of_fit_ref    0.900
_refine_ls_restrained_S_all       0.902
_refine_ls_shift/su_max           0.001
_refine_ls_shift/su_mean          0.000

loop_
  _atom_site_label
  _atom_site_type_symbol
  _atom_site_fract_x
  _atom_site_fract_y
  _atom_site_fract_z
  _atom_site_U_iso_or_equiv
  _atom_site_adp_type
  _atom_site_occupancy
  _atom_site_symmetry_multiplicity
  _atom_site_calc_flag
  _atom_site_refinement_flags
  _atom_site_disorder_assembly
  _atom_site_disorder_group
Co1 Co 0.50162(11) 0.24059(6) 0.62196(5) 0.0265(3) Uani 1 1 d D . .
N1 N 0.2842(6) 0.1913(3) 0.6511(3) 0.0278(17) Uani 1 1 d D . .
N2 N 0.4408(6) 0.1306(3) 0.5433(3) 0.0196(15) Uani 1 1 d D . .
N3 N 0.6963(6) 0.2420(3) 0.5628(3) 0.0256(17) Uani 1 1 d D . .
N4 N 0.4108(6) 0.3320(3) 0.5551(3) 0.0254(17) Uani 1 1 d D . .
N5 N 0.5641(6) 0.3506(3) 0.6945(3) 0.0267(17) Uani 1 1 d D . .
N6 N 0.6059(6) 0.1819(3) 0.7129(3) 0.0253(17) Uani 1 1 d D . .
C1 C 0.2042(8) 0.2233(5) 0.7040(3) 0.033(2) Uani 1 1 d D . .
H1A H 0.2508 0.2765 0.7396 0.039 Uiso 1 1 calc R . .
C2 C 0.0582(9) 0.1860(5) 0.7121(4) 0.048(3) Uani 1 1 d D . .
H2A H 0.0047 0.2140 0.7498 0.057 Uiso 1 1 calc R . .
C3 C -0.0057(9) 0.1061(5) 0.6626(4) 0.042(2) Uani 1 1 d D . .
H3A H -0.1034 0.0758 0.6675 0.051 Uiso 1 1 calc R . .
C4 C 0.0721(8) 0.0708(5) 0.6068(4) 0.031(2) Uani 1 1 d D . .
H4A H 0.0281 0.0168 0.5716 0.038 Uiso 1 1 calc R . .
C5 C 0.2159(7) 0.1147(4) 0.6018(3) 0.024(2) Uani 1 1 d D . .
C6 C 0.3013(8) 0.0858(4) 0.5435(4) 0.030(2) Uani 1 1 d D . .
H6A H 0.2601 0.0347 0.5046 0.036 Uiso 1 1 calc R . .
C7 C 0.5335(7) 0.1146(4) 0.4927(3) 0.027(2) Uani 1 1 d D . .
H7A H 0.5077 0.0644 0.4514 0.033 Uiso 1 1 calc R . .
C8 C 0.6729(7) 0.1743(4) 0.5016(3) 0.020(2) Uani 1 1 d D . .
C9 C 0.7823(8) 0.1634(4) 0.4521(3) 0.030(2) Uani 1 1 d D . .
H9A H 0.7637 0.1154 0.4090 0.036 Uiso 1 1 calc R . .
C10 C 0.9170(8) 0.2232(5) 0.4668(4) 0.035(2) Uani 1 1 d D . .
H10A H 0.9934 0.2156 0.4347 0.041 Uiso 1 1 calc R . .
C11 C 0.9408(8) 0.2939(5) 0.5280(3) 0.033(2) Uani 1 1 d D . .
H11A H 1.0311 0.3377 0.5381 0.039 Uiso 1 1 calc R . .
C12 C 0.8277(8) 0.2985(4) 0.5740(4) 0.025(2) Uani 1 1 d D . .
H12A H 0.8449 0.3462 0.6173 0.030 Uiso 1 1 calc R . .
C13 C 0.3366(8) 0.3148(5) 0.4816(4) 0.031(2) Uani 1 1 d D . .
H13A H 0.3266 0.2530 0.4554 0.037 Uiso 1 1 calc R . .
C14 C 0.2738(8) 0.3835(5) 0.4422(4) 0.045(3) Uani 1 1 d D . .
H14A H 0.2238 0.3704 0.3888 0.053 Uiso 1 1 calc R . .
C15 C 0.2847(9) 0.4734(5) 0.4822(4) 0.050(3) Uani 1 1 d D . .
H15A H 0.2382 0.5216 0.4571 0.060 Uiso 1 1 calc R . .
C16 C 0.3628(8) 0.4912(5) 0.5576(4) 0.039(2) Uani 1 1 d D . .
H16A H 0.3725 0.5525 0.5848 0.046 Uiso 1 1 calc R . .
C17 C 0.4272(8) 0.4213(4) 0.5943(4) 0.025(2) Uani 1 1 d D . .
C18 C 0.5197(8) 0.4282(5) 0.6696(3) 0.032(2) Uani 1 1 d D . .
H18A H 0.5484 0.4870 0.7010 0.038 Uiso 1 1 calc R . .
C19 C 0.6541(8) 0.3394(5) 0.7601(4) 0.036(2) Uani 1 1 d D . .
H19A H 0.7015 0.3915 0.7966 0.043 Uiso 1 1 calc R . .
C20 C 0.6762(8) 0.2478(5) 0.7730(3) 0.037(2) Uani 1 1 d D . .
C21 C 0.7558(8) 0.2168(5) 0.8401(3) 0.033(2) Uani 1 1 d DU . .
H21A H 0.8053 0.2619 0.8823 0.040 Uiso 1 1 calc R . .
C22 C 0.7647(8) 0.1239(5) 0.8467(3) 0.036(2) Uani 1 1 d DU . .
H22A H 0.8205 0.1041 0.8926 0.044 Uiso 1 1 calc R . .
C23 C 0.6900(8) 0.0582(5) 0.7846(4) 0.045(2) Uani 1 1 d DU . .
H23A H 0.6939 -0.0074 0.7869 0.054 Uiso 1 1 calc R . .
C24 C 0.6114(8) 0.0911(5) 0.7205(4) 0.037(2) Uani 1 1 d DU . .
H24A H 0.5576 0.0464 0.6790 0.044 Uiso 1 1 calc R . .
Co2 Co 0.06255(11) 0.26300(7) 0.15206(5) 0.0286(3) Uani 1 1 d D . .
N7 N 0.2887(6) 0.2786(4) 0.2065(3) 0.0277(17) Uani 1 1 d D . .
N8 N 0.0498(6) 0.1703(4) 0.2312(3) 0.0347(19) Uani 1 1 d D . .
N9 N -0.1623(6) 0.1994(4) 0.1211(3) 0.0320(18) Uani 1 1 d D . .
N10 N 0.0063(6) 0.3725(4) 0.2221(3) 0.0328(18) Uani 1 1 d D . .
N11 N 0.0785(6) 0.3643(3) 0.0815(3) 0.0262(17) Uani 1 1 d D . .
N12 N 0.1182(6) 0.1908(4) 0.0541(3) 0.0291(18) Uani 1 1 d D . .
C25 C 0.4093(8) 0.3311(5) 0.1878(4) 0.041(3) Uani 1 1 d D . .
H25A H 0.3947 0.3700 0.1455 0.049 Uiso 1 1 calc R . .
C26 C 0.5544(8) 0.3312(5) 0.2273(4) 0.043(3) Uani 1 1 d D . .
H26A H 0.6379 0.3697 0.2128 0.051 Uiso 1 1 calc R . .
C27 C 0.5750(8) 0.2746(5) 0.2878(4) 0.039(2) Uani 1 1 d D . .
H27A H 0.6733 0.2733 0.3164 0.047 Uiso 1 1 calc R . .
C28 C 0.4533(8) 0.2204(5) 0.3062(4) 0.041(2) Uani 1 1 d D . .
H28A H 0.4667 0.1814 0.3485 0.049 Uiso 1 1 calc R . .
C29 C 0.3109(8) 0.2208(5) 0.2649(4) 0.031(2) Uani 1 1 d D . .
C30 C 0.1792(8) 0.1649(5) 0.2804(4) 0.033(2) Uani 1 1 d D . .
H30A H 0.1819 0.1258 0.3230 0.040 Uiso 1 1 calc R . .
C31 C -0.0866(8) 0.1219(5) 0.2323(4) 0.035(2) Uani 1 1 d D . .
H31A H -0.1035 0.0804 0.2719 0.042 Uiso 1 1 calc R . .
C32 C -0.2026(8) 0.1354(4) 0.1725(4) 0.028(2) Uani 1 1 d D . .
C33 C -0.3506(8) 0.0884(5) 0.1633(4) 0.046(3) Uani 1 1 d D . .
H33A H -0.3791 0.0464 0.2007 0.055 Uiso 1 1 calc R . .
C34 C -0.4530(9) 0.1033(5) 0.1005(4) 0.056(3) Uani 1 1 d D . .
H34A H -0.5520 0.0690 0.0923 0.067 Uiso 1 1 calc R . .
C35 C -0.4144(9) 0.1672(6) 0.0493(4) 0.055(3) Uani 1 1 d D . .
H35A H -0.4863 0.1784 0.0058 0.067 Uiso 1 1 calc R . .
C36 C -0.2689(9) 0.2157(5) 0.0616(4) 0.052(3) Uani 1 1 d D . .
H36A H -0.2434 0.2619 0.0269 0.063 Uiso 1 1 calc R . .
C37 C -0.0398(8) 0.3719(5) 0.2922(4) 0.037(2) Uani 1 1 d D . .
H37A H -0.0447 0.3147 0.3169 0.044 Uiso 1 1 calc R . .
C38 C -0.0807(9) 0.4488(5) 0.3311(4) 0.049(3) Uani 1 1 d D . .
H38A H -0.1114 0.4453 0.3819 0.059 Uiso 1 1 calc R . .
C39 C -0.0766(9) 0.5323(5) 0.2950(4) 0.050(3) Uani 1 1 d D . .
H39A H -0.1059 0.5867 0.3206 0.060 Uiso 1 1 calc R . .
C40 C -0.0298(8) 0.5357(5) 0.2220(4) 0.038(2) Uani 1 1 d D . .
H40A H -0.0232 0.5927 0.1970 0.045 Uiso 1 1 calc R . .
C41 C 0.0073(8) 0.4545(5) 0.1859(3) 0.028(2) Uani 1 1 d D . .
C42 C 0.0563(8) 0.4485(5) 0.1098(4) 0.031(2) Uani 1 1 d D . .
H42A H 0.0720 0.5022 0.0813 0.038 Uiso 1 1 calc R . .
C43 C 0.1230(8) 0.3419(5) 0.0131(4) 0.038(2) Uani 1 1 d D . .
H43A H 0.1419 0.3881 -0.0226 0.046 Uiso 1 1 calc R . .
C44 C 0.1413(8) 0.2477(5) -0.0052(4) 0.034(2) Uani 1 1 d D . .
C45 C 0.1903(9) 0.2123(5) -0.0760(4) 0.045(3) Uani 1 1 d D . .
H45A H 0.2123 0.2531 -0.1154 0.054 Uiso 1 1 calc R . .
C46 C 0.2052(9) 0.1187(5) -0.0865(4) 0.049(3) Uani 1 1 d D . .
H46A H 0.2341 0.0934 -0.1343 0.059 Uiso 1 1 calc R . .
C47 C 0.1780(8) 0.0612(5) -0.0274(4) 0.045(3) Uani 1 1 d D . .
H47A H 0.1875 -0.0040 -0.0336 0.054 Uiso 1 1 calc R . .
C48 C 0.1364(8) 0.1011(5) 0.0412(4) 0.035(2) Uani 1 1 d D . .
H48A H 0.1198 0.0613 0.0820 0.042 Uiso 1 1 calc R . .

loop_
  _atom_site_aniso_label
  _atom_site_aniso_U_11
  _atom_site_aniso_U_22
  _atom_site_aniso_U_33
  _atom_site_aniso_U_23
  _atom_site_aniso_U_13
  _atom_site_aniso_U_12
Co1 0.0239(7) 0.0293(6) 0.0259(5) 0.0024(5) 0.0045(5) 0.0005(5)
N1 0.038(4) 0.031(4) 0.017(3) 0.007(3) 0.008(3) 0.008(3)
N2 0.014(4) 0.017(3) 0.030(3) 0.015(3) -0.002(3) 0.010(3)
N3 0.031(4) 0.022(3) 0.019(3) 0.008(3) -0.008(3) -0.007(3)
N4 0.008(4) 0.042(4) 0.026(3) 0.004(3) 0.010(3) -0.006(3)
N5 0.019(4) 0.028(4) 0.036(3) 0.002(3) 0.010(3) 0.007(3)
N6 0.018(4) 0.028(4) 0.032(3) 0.002(3) 0.007(3) 0.006(3)
C1 0.043(6) 0.037(5) 0.014(4) 0.004(4) -0.005(4) -0.001(5)
C2 0.043(6) 0.051(5) 0.052(5) 0.009(4) 0.019(4) 0.002(5)
C3 0.038(6) 0.039(5) 0.049(5) 0.018(4) 0.005(4) -0.003(5)
C4 0.029(5) 0.038(5) 0.026(4) 0.000(4) 0.002(4) 0.004(4)
C5 0.016(5) 0.031(5) 0.029(4) -0.001(4) 0.015(4) 0.004(4)
C6 0.040(6) 0.020(4) 0.029(4) 0.004(3) 0.005(4) 0.001(4)
C7 0.035(5) 0.029(4) 0.021(4) -0.007(3) 0.020(4) 0.007(4)
C8 0.018(5) 0.028(4) 0.015(4) 0.003(3) 0.011(3) 0.001(4)
C9 0.038(6) 0.026(4) 0.023(4) 0.004(3) -0.005(4) 0.009(4)
C10 0.022(5) 0.052(5) 0.033(4) 0.020(4) 0.005(4) 0.010(4)
C11 0.018(5) 0.049(5) 0.026(4) 0.013(4) -0.006(4) -0.012(4)
C12 0.027(5) 0.022(4) 0.026(4) 0.007(3) -0.001(4) 0.011(4)
C13 0.017(5) 0.032(5) 0.046(5) 0.004(4) 0.010(4) 0.009(4)
C14 0.029(6) 0.054(6) 0.049(5) -0.004(5) 0.007(4) -0.001(5)
C15 0.043(6) 0.052(5) 0.067(5) 0.045(5) 0.016(5) 0.024(5)
C16 0.027(5) 0.036(5) 0.056(5) 0.021(4) 0.012(4) 0.002(4)
C17 0.030(5) 0.013(4) 0.042(4) 0.004(4) 0.024(4) 0.013(4)
C18 0.038(5) 0.032(5) 0.025(4) 0.006(4) 0.010(4) -0.003(4)
C19 0.036(6) 0.037(5) 0.028(4) 0.001(4) -0.005(4) -0.007(5)
C20 0.038(6) 0.045(5) 0.024(4) -0.003(4) 0.001(4) -0.004(5)
C21 0.031(5) 0.050(4) 0.018(4) 0.016(4) -0.002(4) 0.007(4)
C22 0.036(5) 0.060(4) 0.020(3) 0.032(4) 0.008(3) 0.011(4)
C23 0.056(6) 0.046(5) 0.037(4) 0.011(3) 0.023(4) -0.002(5)
C24 0.031(5) 0.047(5) 0.031(4) -0.001(4) 0.009(4) 0.003(4)
Co2 0.0248(7) 0.0305(6) 0.0286(5) -0.0026(5) 0.0042(5) -0.0003(5)
N7 0.023(4) 0.033(4) 0.026(3) -0.005(3) 0.002(3) 0.002(3)
N8 0.037(4) 0.030(4) 0.034(3) -0.008(3) 0.008(3) -0.006(4)
N9 0.027(4) 0.037(4) 0.030(3) -0.009(3) 0.005(3) 0.004(3)
N10 0.027(4) 0.035(4) 0.034(3) 0.000(3) 0.007(3) -0.006(3)
N11 0.015(4) 0.034(4) 0.027(3) 0.002(3) -0.003(3) -0.002(3)
N12 0.021(4) 0.026(4) 0.041(4) -0.002(3) 0.004(3) 0.009(3)
C25 0.045(6) 0.044(5) 0.032(4) 0.001(4) 0.011(4) -0.004(5)
C26 0.029(5) 0.045(5) 0.050(5) -0.006(4) 0.011(4) -0.013(5)
C27 0.020(5) 0.059(5) 0.037(4) 0.008(4) 0.001(4) 0.005(5)
C28 0.047(6) 0.055(5) 0.018(4) -0.004(4) -0.004(4) 0.014(5)
C29 0.023(5) 0.033(5) 0.037(4) 0.006(4) 0.000(4) 0.004(4)
C30 0.042(6) 0.032(5) 0.027(4) 0.017(4) -0.006(4) 0.016(4)
C31 0.038(6) 0.032(5) 0.037(4) 0.005(4) 0.011(4) 0.007(4)
C32 0.030(5) 0.028(4) 0.031(4) 0.001(4) 0.009(4) 0.013(4)
C33 0.023(6) 0.054(6) 0.055(5) -0.005(4) 0.008(4) -0.011(5)
C34 0.037(6) 0.059(6) 0.070(6) -0.019(5) 0.019(5) 0.002(5)
C35 0.025(6) 0.080(7) 0.056(5) -0.015(5) -0.004(5) 0.013(5)
C36 0.059(7) 0.058(6) 0.041(5) 0.009(4) 0.013(5) 0.006(5)
C37 0.023(5) 0.042(5) 0.047(5) 0.006(4) 0.006(4) 0.006(4)
C38 0.024(6) 0.064(6) 0.054(5) -0.012(5) -0.002(4) 0.001(5)
C39 0.027(6) 0.050(6) 0.062(6) -0.037(5) -0.010(5) 0.009(5)
C40 0.048(6) 0.028(5) 0.037(4) -0.013(4) 0.014(4) 0.007(4)
C41 0.020(5) 0.035(5) 0.027(4) -0.010(4) -0.002(4) 0.009(4)
C42 0.028(5) 0.025(4) 0.041(5) 0.010(4) 0.003(4) -0.001(4)
C43 0.041(6) 0.036(5) 0.038(5) 0.010(4) 0.006(4) 0.004(5)
C44 0.044(6) 0.032(5) 0.022(4) -0.002(4) -0.001(4) 0.000(5)
C45 0.045(6) 0.058(6) 0.033(4) -0.001(4) 0.014(4) 0.005(5)
C46 0.043(6) 0.058(6) 0.046(5) -0.012(5) 0.013(4) 0.009(5)
C47 0.014(5) 0.043(5) 0.070(6) -0.017(5) -0.004(4) 0.005(4)
C48 0.024(5) 0.037(5) 0.039(5) 0.012(4) -0.017(4) 0.005(4)

_geom_special_details
;
  All esds (except the esd in the dihedral angle between two l.s. planes)
  are estimated using the full covariance matrix.  The cell esds are taken
  into account individually in the estimation of esds in distances, angles
  and torsion angles; correlations between esds in cell parameters are only
  used when they are defined by crystal symmetry.  An approximate (isotropic)
  treatment of cell esds is used for estimating esds involving l.s. planes.
;

loop_
  _geom_bond_atom_site_label_1
  _geom_bond_atom_site_label_2
  _geom_bond_distance
  _geom_bond_site_symmetry_2
  _geom_bond_publ_flag
Co1 N5 1.904(5) . ?
Co1 N2 1.960(4) . ?
Co1 N4 1.979(5) . ?
Co1 N6 1.992(5) . ?
Co1 N1 2.138(5) . ?
Co1 N3 2.143(5) . ?
N1 C1 1.323(7) . ?
N1 C5 1.355(7) . ?
N2 C7 1.311(7) . ?
N2 C6 1.340(7) . ?
N3 C12 1.331(7) . ?
N3 C8 1.345(6) . ?
N4 C13 1.323(7) . ?
N4 C17 1.381(7) . ?
N5 C18 1.309(8) . ?
N5 C19 1.317(7) . ?
N6 C24 1.327(8) . ?
N6 C20 1.365(7) . ?
C1 C2 1.387(9) . ?
C2 C3 1.382(8) . ?
C3 C4 1.363(9) . ?
C4 C5 1.386(8) . ?
C5 C6 1.410(8) . ?
C7 C8 1.413(7) . ?
C8 C9 1.401(8) . ?
C9 C10 1.376(8) . ?
C10 C11 1.373(8) . ?
C11 C12 1.376(8) . ?
C13 C14 1.368(9) . ?
C14 C15 1.399(9) . ?
C15 C16 1.364(8) . ?
C16 C17 1.367(9) . ?
C17 C18 1.417(8) . ?
C19 C20 1.384(9) . ?
C20 C21 1.392(8) . ?
C21 C22 1.358(8) . ?
C22 C23 1.397(8) . ?
C23 C24 1.362(9) . ?
Co2 N11 1.961(5) . ?
Co2 N8 1.971(5) . ?
Co2 N12 2.055(5) . ?
Co2 N10 2.058(5) . ?
Co2 N7 2.091(5) . ?
Co2 N9 2.091(5) . ?
N7 C25 1.336(7) . ?
N7 C29 1.353(8) . ?
N8 C31 1.338(7) . ?
N8 C30 1.349(8) . ?
N9 C36 1.348(8) . ?
N9 C32 1.370(7) . ?
N10 C37 1.322(7) . ?
N10 C41 1.370(8) . ?
N11 C42 1.316(7) . ?
N11 C43 1.317(7) . ?
N12 C48 1.323(8) . ?
N12 C44 1.371(7) . ?
C25 C26 1.381(9) . ?
C26 C27 1.367(9) . ?
C27 C28 1.353(8) . ?
C28 C29 1.372(9) . ?
C29 C30 1.416(8) . ?
C31 C32 1.394(8) . ?
C32 C33 1.400(8) . ?
C33 C34 1.357(9) . ?
C34 C35 1.362(9) . ?
C35 C36 1.385(9) . ?
C37 C38 1.360(9) . ?
C38 C39 1.387(9) . ?
C39 C40 1.373(8) . ?
C40 C41 1.376(8) . ?
C41 C42 1.429(8) . ?
C43 C44 1.399(9) . ?
C44 C45 1.423(8) . ?
C45 C46 1.367(9) . ?
C46 C47 1.381(9) . ?
C47 C48 1.383(9) . ?

loop_
  _geom_angle_atom_site_label_1
  _geom_angle_atom_site_label_2
  _geom_angle_atom_site_label_3
  _geom_angle
  _geom_angle_site_symmetry_1
  _geom_angle_site_symmetry_3
  _geom_angle_publ_flag
N5 Co1 N2 177.3(2) . . ?
N5 Co1 N4 82.0(2) . . ?
N2 Co1 N4 96.1(2) . . ?
N5 Co1 N6 81.0(2) . . ?
N2 Co1 N6 100.9(2) . . ?
N4 Co1 N6 163.0(2) . . ?
N5 Co1 N1 102.2(2) . . ?
N2 Co1 N1 79.8(2) . . ?
N4 Co1 N1 90.3(2) . . ?
N6 Co1 N1 91.4(2) . . ?
N5 Co1 N3 99.7(2) . . ?
N2 Co1 N3 78.43(19) . . ?
N4 Co1 N3 93.62(19) . . ?
N6 Co1 N3 91.0(2) . . ?
N1 Co1 N3 158.15(18) . . ?
C1 N1 C5 116.0(5) . . ?
C1 N1 Co1 132.7(4) . . ?
C5 N1 Co1 111.2(4) . . ?
C7 N2 C6 127.5(5) . . ?
C7 N2 Co1 117.3(4) . . ?
C6 N2 Co1 114.9(4) . . ?
C12 N3 C8 117.0(5) . . ?
C12 N3 Co1 131.9(4) . . ?
C8 N3 Co1 111.0(4) . . ?
C13 N4 C17 120.2(6) . . ?
C13 N4 Co1 127.2(5) . . ?
C17 N4 Co1 112.6(4) . . ?
C18 N5 C19 128.9(5) . . ?
C18 N5 Co1 115.2(4) . . ?
C19 N5 Co1 115.7(5) . . ?
C24 N6 C20 119.7(5) . . ?
C24 N6 Co1 128.2(4) . . ?
C20 N6 Co1 112.0(4) . . ?
N1 C1 C2 125.6(6) . . ?
C3 C2 C1 116.7(7) . . ?
C4 C3 C2 119.8(7) . . ?
C3 C4 C5 119.2(6) . . ?
N1 C5 C4 122.6(6) . . ?
N1 C5 C6 114.4(5) . . ?
C4 C5 C6 122.9(6) . . ?
N2 C6 C5 119.6(5) . . ?
N2 C7 C8 117.8(5) . . ?
N3 C8 C9 121.6(5) . . ?
N3 C8 C7 115.3(5) . . ?
C9 C8 C7 123.2(5) . . ?
C10 C9 C8 119.1(6) . . ?
C11 C10 C9 119.8(6) . . ?
C10 C11 C12 116.9(6) . . ?
N3 C12 C11 125.6(6) . . ?
N4 C13 C14 121.9(6) . . ?
C13 C14 C15 118.6(6) . . ?
C16 C15 C14 119.4(7) . . ?
C15 C16 C17 120.3(7) . . ?
C16 C17 N4 119.7(6) . . ?
C16 C17 C18 128.1(6) . . ?
N4 C17 C18 112.2(6) . . ?
N5 C18 C17 117.6(6) . . ?
N5 C19 C20 116.4(6) . . ?
N6 C20 C19 114.2(6) . . ?
N6 C20 C21 118.3(6) . . ?
C19 C20 C21 127.5(6) . . ?
C22 C21 C20 121.8(6) . . ?
C21 C22 C23 118.6(6) . . ?
C24 C23 C22 117.9(7) . . ?
N6 C24 C23 123.7(6) . . ?
N11 Co2 N8 174.8(2) . . ?
N11 Co2 N12 79.8(2) . . ?
N8 Co2 N12 105.1(2) . . ?
N11 Co2 N10 79.5(2) . . ?
N8 Co2 N10 95.7(2) . . ?
N12 Co2 N10 159.2(2) . . ?
N11 Co2 N7 98.7(2) . . ?
N8 Co2 N7 79.5(2) . . ?
N12 Co2 N7 89.9(2) . . ?
N10 Co2 N7 94.8(2) . . ?
N11 Co2 N9 103.7(2) . . ?
N8 Co2 N9 78.6(2) . . ?
N12 Co2 N9 89.9(2) . . ?
N10 Co2 N9 93.3(2) . . ?
N7 Co2 N9 157.3(2) . . ?
C25 N7 C29 118.4(6) . . ?
C25 N7 Co2 129.2(4) . . ?
C29 N7 Co2 112.3(4) . . ?
C31 N8 C30 126.9(6) . . ?
C31 N8 Co2 116.9(5) . . ?
C30 N8 Co2 116.2(4) . . ?
C36 N9 C32 118.2(6) . . ?
C36 N9 Co2 129.4(5) . . ?
C32 N9 Co2 112.4(4) . . ?
C37 N10 C41 117.5(6) . . ?
C37 N10 Co2 129.3(5) . . ?
C41 N10 Co2 113.0(4) . . ?
C42 N11 C43 126.9(5) . . ?
C42 N11 Co2 117.1(4) . . ?
C43 N11 Co2 115.8(4) . . ?
C48 N12 C44 117.4(5) . . ?
C48 N12 Co2 130.3(4) . . ?
C44 N12 Co2 112.3(4) . . ?
N7 C25 C26 122.8(6) . . ?
C27 C26 C25 118.4(6) . . ?
C28 C27 C26 118.9(7) . . ?
C27 C28 C29 121.3(7) . . ?
N7 C29 C28 120.2(6) . . ?
N7 C29 C30 115.7(6) . . ?
C28 C29 C30 124.1(6) . . ?
N8 C30 C29 116.2(6) . . ?
N8 C31 C32 116.7(6) . . ?
N9 C32 C31 115.1(6) . . ?
N9 C32 C33 120.7(6) . . ?
C31 C32 C33 124.2(6) . . ?
C34 C33 C32 119.4(7) . . ?
C33 C34 C35 120.3(7) . . ?
C34 C35 C36 119.1(7) . . ?
N9 C36 C35 122.1(7) . . ?
N10 C37 C38 123.6(7) . . ?
C37 C38 C39 118.7(7) . . ?
C40 C39 C38 119.5(7) . . ?
C39 C40 C41 118.3(7) . . ?
N10 C41 C40 122.2(6) . . ?
N10 C41 C42 113.9(6) . . ?
C40 C41 C42 123.8(6) . . ?
N11 C42 C41 116.2(6) . . ?
N11 C43 C44 117.6(6) . . ?
N12 C44 C43 114.3(6) . . ?
N12 C44 C45 120.9(6) . . ?
C43 C44 C45 124.7(6) . . ?
C46 C45 C44 119.1(6) . . ?
C45 C46 C47 119.6(7) . . ?
C46 C47 C48 118.2(7) . . ?
N12 C48 C47 124.7(6) . . ?

_diffrn_measured_fraction_theta_max    0.886
_diffrn_reflns_theta_full              20.89
_diffrn_measured_fraction_theta_full   0.886
_refine_diff_density_max    0.379
_refine_diff_density_min   -0.322
_refine_diff_density_rms    0.078